Instance name: /mnt/c/Users/ORG/CLionProjects/uMV-FSTSP/Murray_Chu_2015_test_data/FSTSP/FSTSP_10_customer_problems/20140810T123443v11

drone speed: 0.6 miles/minute
uav non-eligible customer: 4 8 
Printing number of nodes: 11

Set parameter Threads to value 20
Gurobi Optimizer version 11.0.0 build v11.0.0rc2 (linux64 - "Ubuntu 22.04.3 LTS")

CPU model: 13th Gen Intel(R) Core(TM) i5-13500, instruction set [SSE2|AVX|AVX2]
Thread count: 10 physical cores, 20 logical processors, using up to 20 threads

Optimize a model with 6346 rows, 1825 columns and 197322 nonzeros
Model fingerprint: 0x64359ec4
Variable types: 11 continuous, 1814 integer (1814 binary)
Coefficient statistics:
  Matrix range     [5e-01, 3e+01]
  Objective range  [1e+00, 3e+01]
  Bounds range     [1e+00, 1e+00]
  RHS range        [1e+00, 8e+00]
Found heuristic solution: objective 133.5791851
Presolve removed 955 rows and 837 columns
Presolve time: 0.35s
Presolved: 5391 rows, 988 columns, 152271 nonzeros
Variable types: 8 continuous, 980 integer (980 binary)

Root relaxation: objective 5.532727e+01, 2137 iterations, 0.12 seconds (0.36 work units)

    Nodes    |    Current Node    |     Objective Bounds      |     Work
 Expl Unexpl |  Obj  Depth IntInf | Incumbent    BestBd   Gap | It/Node Time

     0     0   55.32727    0  109  133.57919   55.32727  58.6%     -    0s
H    0     0                      93.3718967   55.32727  40.7%     -    0s
H    0     0                      79.0201263   55.32727  30.0%     -    0s
     0     0   56.39504    0   56   79.02013   56.39504  28.6%     -    0s
H    0     0                      72.7663288   56.39504  22.5%     -    0s
H    0     0                      62.5665585   56.39504  9.86%     -    0s
     0     0   56.39504    0   46   62.56656   56.39504  9.86%     -    0s
H    0     0                      57.3822897   56.39504  1.72%     -    0s
     0     0   56.39504    0   59   57.38229   56.39504  1.72%     -    0s
     0     0   56.39504    0   95   57.38229   56.39504  1.72%     -    1s
     0     0   56.39504    0   89   57.38229   56.39504  1.72%     -    1s
     0     0   56.39504    0   50   57.38229   56.39504  1.72%     -    1s

Explored 1 nodes (4015 simplex iterations) in 1.13 seconds (2.22 work units)
Thread count was 20 (of 20 available processors)

Solution count 6: 57.3823 62.5666 72.7663 ... 133.579

Optimal solution found (tolerance 1.00e-04)
Best objective 5.738228971240e+01, best bound 5.738228971240e+01, gap 0.0000%
